(set-info :source |printed by MathSAT|)
(declare-fun |!{a1.1}| () (Array Int Int))
(declare-fun |!{a1.1}.next| () (Array Int Int))
(declare-fun |!{a2.2}| () (Array Int Int))
(declare-fun |!{a2.2}.next| () (Array Int Int))
(declare-fun |!{a3.3}| () (Array Int Int))
(declare-fun |!{a3.3}.next| () (Array Int Int))
(declare-fun |!{a4.4}| () (Array Int Int))
(declare-fun |!{a4.4}.next| () (Array Int Int))
(declare-fun |!{a5.5}| () (Array Int Int))
(declare-fun |!{a5.5}.next| () (Array Int Int))
(declare-fun |!{a6.6}| () (Array Int Int))
(declare-fun |!{a6.6}.next| () (Array Int Int))
(declare-fun |!{a7.7}| () (Array Int Int))
(declare-fun |!{a7.7}.next| () (Array Int Int))
(declare-fun |!{a8.8}| () (Array Int Int))
(declare-fun |!{a8.8}.next| () (Array Int Int))
(declare-fun |!{N}| () Int)
(declare-fun |!{N}.next| () Int)
(declare-fun |!{i}| () Int)
(declare-fun |!{i}.next| () Int)
(declare-fun |!{x}| () Int)
(declare-fun |!{x}.next| () Int)
(declare-fun |!pc[0]| () Bool)
(declare-fun |!pc[0].next| () Bool)
(declare-fun |!pc[1]| () Bool)
(declare-fun |!pc[1].next| () Bool)
(declare-fun |!pc[2]| () Bool)
(declare-fun |!pc[2].next| () Bool)
(declare-fun |!pc[3]| () Bool)
(declare-fun |!pc[3].next| () Bool)
(declare-fun |%{x}#1| () Int)
(declare-fun |%{a1.1}#1| () (Array Int Int))
(declare-fun |%{a2.2}#1| () (Array Int Int))
(declare-fun |%{a3.3}#1| () (Array Int Int))
(declare-fun |%{a4.4}#1| () (Array Int Int))
(declare-fun |%{a5.5}#1| () (Array Int Int))
(declare-fun |%{a6.6}#1| () (Array Int Int))
(declare-fun |%{a7.7}#1| () (Array Int Int))
(declare-fun |%{a8.8}#1| () (Array Int Int))
(declare-fun nd<0> () Int)
(declare-fun nd_char<0> () Int)
(declare-fun arrlambda_0 () Int)
(declare-fun arrlambda_0.next () Int)
(declare-fun proph0 () Int)
(declare-fun proph0.next () Int)
(define-fun .def_10 () Bool (! |!pc[3]| :next |!pc[3].next|))
(define-fun .def_12 () Bool (! |!pc[2]| :next |!pc[2].next|))
(define-fun .def_14 () Bool (! |!pc[1]| :next |!pc[1].next|))
(define-fun .def_16 () Bool (! |!pc[0]| :next |!pc[0].next|))
(define-fun .def_34 () (Array Int Int) (! |!{a2.2}| :next |!{a2.2}.next|))
(define-fun .def_37 () (Array Int Int) (! |!{a1.1}| :next |!{a1.1}.next|))
(define-fun .def_41 () (Array Int Int) (! |!{a3.3}| :next |!{a3.3}.next|))
(define-fun .def_45 () (Array Int Int) (! |!{a4.4}| :next |!{a4.4}.next|))
(define-fun .def_49 () (Array Int Int) (! |!{a5.5}| :next |!{a5.5}.next|))
(define-fun .def_53 () (Array Int Int) (! |!{a6.6}| :next |!{a6.6}.next|))
(define-fun .def_57 () (Array Int Int) (! |!{a7.7}| :next |!{a7.7}.next|))
(define-fun .def_61 () (Array Int Int) (! |!{a8.8}| :next |!{a8.8}.next|))
(define-fun .def_65 () Int (! |!{N}| :next |!{N}.next|))
(define-fun .def_73 () Int (! |!{x}| :next |!{x}.next|))
(define-fun .def_77 () Int (! |!{i}| :next |!{i}.next|))
(define-fun .def_734 () Int (! arrlambda_0 :next |arrlambda_0.next|))
(define-fun .def_325756 () Int (! proph0 :next |proph0.next|))
(define-fun .def_17 () Bool (not .def_16))
(define-fun .def_15 () Bool (not .def_14))
(define-fun .def_18 () Bool (and .def_15 .def_17))
(define-fun .def_13 () Bool (not .def_12))
(define-fun .def_19 () Bool (and .def_13 .def_18))
(define-fun .def_11 () Bool (not .def_10))
(define-fun .def_20 () Bool (! (and .def_11 .def_19) :init true))
(define-fun .def_568686 () Int (select .def_61 .def_325756))
(define-fun .def_568648 () Int (select |!{a8.8}.next| .def_325756))
(define-fun .def_568749 () Bool (= .def_568648 .def_568686))
(define-fun .def_63 () Bool (= .def_61 |!{a8.8}.next|))
(define-fun .def_162088 () Bool (not .def_63))
(define-fun .def_568750 () Bool (or .def_162088 .def_568749))
(define-fun .def_568691 () Int (select .def_57 .def_325756))
(define-fun .def_568653 () Int (select |!{a7.7}.next| .def_325756))
(define-fun .def_568746 () Bool (= .def_568653 .def_568691))
(define-fun .def_59 () Bool (= .def_57 |!{a7.7}.next|))
(define-fun .def_162080 () Bool (not .def_59))
(define-fun .def_568747 () Bool (or .def_162080 .def_568746))
(define-fun .def_568696 () Int (select .def_53 .def_325756))
(define-fun .def_568658 () Int (select |!{a6.6}.next| .def_325756))
(define-fun .def_568743 () Bool (= .def_568658 .def_568696))
(define-fun .def_55 () Bool (= .def_53 |!{a6.6}.next|))
(define-fun .def_162075 () Bool (not .def_55))
(define-fun .def_568744 () Bool (or .def_162075 .def_568743))
(define-fun .def_568701 () Int (select .def_49 .def_325756))
(define-fun .def_568663 () Int (select |!{a5.5}.next| .def_325756))
(define-fun .def_568740 () Bool (= .def_568663 .def_568701))
(define-fun .def_51 () Bool (= .def_49 |!{a5.5}.next|))
(define-fun .def_162070 () Bool (not .def_51))
(define-fun .def_568741 () Bool (or .def_162070 .def_568740))
(define-fun .def_568706 () Int (select .def_45 .def_325756))
(define-fun .def_568668 () Int (select |!{a4.4}.next| .def_325756))
(define-fun .def_568737 () Bool (= .def_568668 .def_568706))
(define-fun .def_47 () Bool (= .def_45 |!{a4.4}.next|))
(define-fun .def_162065 () Bool (not .def_47))
(define-fun .def_568738 () Bool (or .def_162065 .def_568737))
(define-fun .def_568711 () Int (select .def_41 .def_325756))
(define-fun .def_568673 () Int (select |!{a3.3}.next| .def_325756))
(define-fun .def_568734 () Bool (= .def_568673 .def_568711))
(define-fun .def_43 () Bool (= .def_41 |!{a3.3}.next|))
(define-fun .def_162060 () Bool (not .def_43))
(define-fun .def_568735 () Bool (or .def_162060 .def_568734))
(define-fun .def_568720 () Int (select .def_34 .def_325756))
(define-fun .def_568682 () Int (select |!{a2.2}.next| .def_325756))
(define-fun .def_568731 () Bool (= .def_568682 .def_568720))
(define-fun .def_36 () Bool (= .def_34 |!{a2.2}.next|))
(define-fun .def_162055 () Bool (not .def_36))
(define-fun .def_568732 () Bool (or .def_162055 .def_568731))
(define-fun .def_162096 () Int (select |!{a7.7}.next| .def_77))
(define-fun .def_225 () Int (select .def_57 .def_77))
(define-fun .def_568728 () Bool (= .def_225 .def_162096))
(define-fun .def_568729 () Bool (or .def_162080 .def_568728))
(define-fun .def_162101 () Int (select |!{a6.6}.next| .def_77))
(define-fun .def_203 () Int (select .def_53 .def_77))
(define-fun .def_568725 () Bool (= .def_203 .def_162101))
(define-fun .def_568726 () Bool (or .def_162075 .def_568725))
(define-fun .def_88 () (Array Int Int) (store .def_34 .def_77 nd_char<0>))
(define-fun .def_568681 () Int (select .def_88 .def_325756))
(define-fun .def_568721 () Bool (= .def_568681 .def_568720))
(define-fun .def_326993 () Bool (= .def_77 .def_325756))
(define-fun .def_568722 () Bool (or .def_326993 .def_568721))
(define-fun .def_90 () (Array Int Int) (store .def_37 .def_77 nd_char<0>))
(define-fun .def_568677 () Int (select .def_90 .def_325756))
(define-fun .def_568642 () Int (select .def_37 .def_325756))
(define-fun .def_568716 () Bool (= .def_568642 .def_568677))
(define-fun .def_568717 () Bool (or .def_326993 .def_568716))
(define-fun .def_120 () Int (select .def_34 .def_77))
(define-fun .def_121 () (Array Int Int) (store .def_41 .def_77 .def_120))
(define-fun .def_568672 () Int (select .def_121 .def_325756))
(define-fun .def_568712 () Bool (= .def_568672 .def_568711))
(define-fun .def_568713 () Bool (or .def_326993 .def_568712))
(define-fun .def_142 () Int (select .def_41 .def_77))
(define-fun .def_143 () (Array Int Int) (store .def_45 .def_77 .def_142))
(define-fun .def_568667 () Int (select .def_143 .def_325756))
(define-fun .def_568707 () Bool (= .def_568667 .def_568706))
(define-fun .def_568708 () Bool (or .def_326993 .def_568707))
(define-fun .def_163 () Int (select .def_45 .def_77))
(define-fun .def_164 () (Array Int Int) (store .def_49 .def_77 .def_163))
(define-fun .def_568662 () Int (select .def_164 .def_325756))
(define-fun .def_568702 () Bool (= .def_568662 .def_568701))
(define-fun .def_568703 () Bool (or .def_326993 .def_568702))
(define-fun .def_184 () Int (select .def_49 .def_77))
(define-fun .def_185 () (Array Int Int) (store .def_53 .def_77 .def_184))
(define-fun .def_568657 () Int (select .def_185 .def_325756))
(define-fun .def_568697 () Bool (= .def_568657 .def_568696))
(define-fun .def_568698 () Bool (or .def_326993 .def_568697))
(define-fun .def_204 () (Array Int Int) (store .def_57 .def_77 .def_203))
(define-fun .def_568652 () Int (select .def_204 .def_325756))
(define-fun .def_568692 () Bool (= .def_568652 .def_568691))
(define-fun .def_568693 () Bool (or .def_326993 .def_568692))
(define-fun .def_226 () (Array Int Int) (store .def_61 .def_77 .def_225))
(define-fun .def_568647 () Int (select .def_226 .def_325756))
(define-fun .def_568687 () Bool (= .def_568647 .def_568686))
(define-fun .def_568688 () Bool (or .def_326993 .def_568687))
(define-fun .def_568683 () Bool (= .def_568681 .def_568682))
(define-fun .def_89 () Bool (= |!{a2.2}.next| .def_88))
(define-fun .def_162127 () Bool (not .def_89))
(define-fun .def_568684 () Bool (or .def_162127 .def_568683))
(define-fun .def_568643 () Int (select |!{a1.1}.next| .def_325756))
(define-fun .def_568678 () Bool (= .def_568643 .def_568677))
(define-fun .def_91 () Bool (= |!{a1.1}.next| .def_90))
(define-fun .def_162122 () Bool (not .def_91))
(define-fun .def_568679 () Bool (or .def_162122 .def_568678))
(define-fun .def_568674 () Bool (= .def_568672 .def_568673))
(define-fun .def_122 () Bool (= |!{a3.3}.next| .def_121))
(define-fun .def_162118 () Bool (not .def_122))
(define-fun .def_568675 () Bool (or .def_162118 .def_568674))
(define-fun .def_568669 () Bool (= .def_568667 .def_568668))
(define-fun .def_144 () Bool (= |!{a4.4}.next| .def_143))
(define-fun .def_162113 () Bool (not .def_144))
(define-fun .def_568670 () Bool (or .def_162113 .def_568669))
(define-fun .def_568664 () Bool (= .def_568662 .def_568663))
(define-fun .def_165 () Bool (= |!{a5.5}.next| .def_164))
(define-fun .def_162108 () Bool (not .def_165))
(define-fun .def_568665 () Bool (or .def_162108 .def_568664))
(define-fun .def_568659 () Bool (= .def_568657 .def_568658))
(define-fun .def_186 () Bool (= |!{a6.6}.next| .def_185))
(define-fun .def_162103 () Bool (not .def_186))
(define-fun .def_568660 () Bool (or .def_162103 .def_568659))
(define-fun .def_568654 () Bool (= .def_568652 .def_568653))
(define-fun .def_205 () Bool (= |!{a7.7}.next| .def_204))
(define-fun .def_162098 () Bool (not .def_205))
(define-fun .def_568655 () Bool (or .def_162098 .def_568654))
(define-fun .def_568649 () Bool (= .def_568647 .def_568648))
(define-fun .def_227 () Bool (= |!{a8.8}.next| .def_226))
(define-fun .def_162093 () Bool (not .def_227))
(define-fun .def_568650 () Bool (or .def_162093 .def_568649))
(define-fun .def_568644 () Bool (= .def_568642 .def_568643))
(define-fun .def_39 () Bool (= .def_37 |!{a1.1}.next|))
(define-fun .def_162039 () Bool (not .def_39))
(define-fun .def_568645 () Bool (or .def_162039 .def_568644))
(define-fun .def_568638 () Int (select .def_61 |!{i}.next|))
(define-fun .def_568637 () Int (select |!{a8.8}.next| |!{i}.next|))
(define-fun .def_568639 () Bool (= .def_568637 .def_568638))
(define-fun .def_568640 () Bool (or .def_162088 .def_568639))
(define-fun .def_568633 () Int (select .def_88 |!{i}.next|))
(define-fun .def_162056 () Int (select .def_34 |!{i}.next|))
(define-fun .def_568634 () Bool (= .def_162056 .def_568633))
(define-fun .def_219 () Bool (= |!{i}.next| .def_77))
(define-fun .def_568635 () Bool (or .def_219 .def_568634))
(define-fun .def_568629 () Int (select .def_121 |!{i}.next|))
(define-fun .def_162061 () Int (select .def_41 |!{i}.next|))
(define-fun .def_568630 () Bool (= .def_162061 .def_568629))
(define-fun .def_568631 () Bool (or .def_219 .def_568630))
(define-fun .def_568625 () Int (select .def_143 |!{i}.next|))
(define-fun .def_162066 () Int (select .def_45 |!{i}.next|))
(define-fun .def_568626 () Bool (= .def_162066 .def_568625))
(define-fun .def_568627 () Bool (or .def_219 .def_568626))
(define-fun .def_568621 () Int (select .def_164 |!{i}.next|))
(define-fun .def_162071 () Int (select .def_49 |!{i}.next|))
(define-fun .def_568622 () Bool (= .def_162071 .def_568621))
(define-fun .def_568623 () Bool (or .def_219 .def_568622))
(define-fun .def_568617 () Int (select .def_204 |!{i}.next|))
(define-fun .def_162081 () Int (select .def_57 |!{i}.next|))
(define-fun .def_568618 () Bool (= .def_162081 .def_568617))
(define-fun .def_568619 () Bool (or .def_219 .def_568618))
(define-fun .def_325759 () Bool (= .def_325756 proph0.next))
(define-fun .def_162125 () Int (select |!{a2.2}.next| .def_77))
(define-fun .def_162035 () Int (select .def_88 .def_77))
(define-fun .def_162126 () Bool (= .def_162035 .def_162125))
(define-fun .def_162128 () Bool (or .def_162126 .def_162127))
(define-fun .def_162050 () Int (select |!{a1.1}.next| .def_77))
(define-fun .def_162031 () Int (select .def_90 .def_77))
(define-fun .def_162121 () Bool (= .def_162031 .def_162050))
(define-fun .def_162123 () Bool (or .def_162121 .def_162122))
(define-fun .def_162116 () Int (select |!{a3.3}.next| .def_77))
(define-fun .def_162027 () Int (select .def_121 .def_77))
(define-fun .def_162117 () Bool (= .def_162027 .def_162116))
(define-fun .def_162119 () Bool (or .def_162117 .def_162118))
(define-fun .def_162111 () Int (select |!{a4.4}.next| .def_77))
(define-fun .def_162023 () Int (select .def_143 .def_77))
(define-fun .def_162112 () Bool (= .def_162023 .def_162111))
(define-fun .def_162114 () Bool (or .def_162112 .def_162113))
(define-fun .def_162106 () Int (select |!{a5.5}.next| .def_77))
(define-fun .def_162019 () Int (select .def_164 .def_77))
(define-fun .def_162107 () Bool (= .def_162019 .def_162106))
(define-fun .def_162109 () Bool (or .def_162107 .def_162108))
(define-fun .def_162015 () Int (select .def_185 .def_77))
(define-fun .def_162102 () Bool (= .def_162015 .def_162101))
(define-fun .def_162104 () Bool (or .def_162102 .def_162103))
(define-fun .def_162011 () Int (select .def_204 .def_77))
(define-fun .def_162097 () Bool (= .def_162011 .def_162096))
(define-fun .def_162099 () Bool (or .def_162097 .def_162098))
(define-fun .def_162091 () Int (select |!{a8.8}.next| .def_77))
(define-fun .def_162007 () Int (select .def_226 .def_77))
(define-fun .def_162092 () Bool (= .def_162007 .def_162091))
(define-fun .def_162094 () Bool (or .def_162092 .def_162093))
(define-fun .def_162086 () Int (select .def_61 |!{x}.next|))
(define-fun .def_162085 () Int (select |!{a8.8}.next| |!{x}.next|))
(define-fun .def_162087 () Bool (= .def_162085 .def_162086))
(define-fun .def_162089 () Bool (or .def_162087 .def_162088))
(define-fun .def_162003 () Int (select |!{a7.7}.next| |!{i}.next|))
(define-fun .def_162082 () Bool (= .def_162003 .def_162081))
(define-fun .def_162083 () Bool (or .def_162080 .def_162082))
(define-fun .def_162076 () Int (select .def_53 |!{i}.next|))
(define-fun .def_161999 () Int (select |!{a6.6}.next| |!{i}.next|))
(define-fun .def_162077 () Bool (= .def_161999 .def_162076))
(define-fun .def_162078 () Bool (or .def_162075 .def_162077))
(define-fun .def_161995 () Int (select |!{a5.5}.next| |!{i}.next|))
(define-fun .def_162072 () Bool (= .def_161995 .def_162071))
(define-fun .def_162073 () Bool (or .def_162070 .def_162072))
(define-fun .def_161991 () Int (select |!{a4.4}.next| |!{i}.next|))
(define-fun .def_162067 () Bool (= .def_161991 .def_162066))
(define-fun .def_162068 () Bool (or .def_162065 .def_162067))
(define-fun .def_161987 () Int (select |!{a3.3}.next| |!{i}.next|))
(define-fun .def_162062 () Bool (= .def_161987 .def_162061))
(define-fun .def_162063 () Bool (or .def_162060 .def_162062))
(define-fun .def_161983 () Int (select |!{a2.2}.next| |!{i}.next|))
(define-fun .def_162057 () Bool (= .def_161983 .def_162056))
(define-fun .def_162058 () Bool (or .def_162055 .def_162057))
(define-fun .def_162051 () Int (select .def_37 .def_77))
(define-fun .def_162052 () Bool (= .def_162050 .def_162051))
(define-fun .def_162053 () Bool (or .def_162039 .def_162052))
(define-fun .def_162046 () Int (select .def_37 |!{x}.next|))
(define-fun .def_162045 () Int (select |!{a1.1}.next| |!{x}.next|))
(define-fun .def_162047 () Bool (= .def_162045 .def_162046))
(define-fun .def_162048 () Bool (or .def_162039 .def_162047))
(define-fun .def_162041 () Int (select .def_37 |!{i}.next|))
(define-fun .def_162040 () Int (select |!{a1.1}.next| |!{i}.next|))
(define-fun .def_162042 () Bool (= .def_162040 .def_162041))
(define-fun .def_162043 () Bool (or .def_162039 .def_162042))
(define-fun .def_162036 () Bool (= nd_char<0> .def_162035))
(define-fun .def_162032 () Bool (= nd_char<0> .def_162031))
(define-fun .def_162028 () Bool (= .def_120 .def_162027))
(define-fun .def_162024 () Bool (= .def_142 .def_162023))
(define-fun .def_162020 () Bool (= .def_163 .def_162019))
(define-fun .def_162016 () Bool (= .def_184 .def_162015))
(define-fun .def_162012 () Bool (= .def_203 .def_162011))
(define-fun .def_162008 () Bool (= .def_225 .def_162007))
(define-fun .def_736 () Bool (= .def_734 arrlambda_0.next))
(define-fun .def_318 () Bool (<= nd<0> 0))
(define-fun .def_319 () Bool (not .def_318))
(define-fun .def_307 () Bool (= |!{a1.1}.next| |%{a1.1}#1|))
(define-fun .def_305 () Bool (= |!{a2.2}.next| |%{a2.2}#1|))
(define-fun .def_308 () Bool (and .def_305 .def_307))
(define-fun .def_303 () Bool (= |!{a3.3}.next| |%{a3.3}#1|))
(define-fun .def_309 () Bool (and .def_303 .def_308))
(define-fun .def_301 () Bool (= |!{a4.4}.next| |%{a4.4}#1|))
(define-fun .def_310 () Bool (and .def_301 .def_309))
(define-fun .def_299 () Bool (= |!{a5.5}.next| |%{a5.5}#1|))
(define-fun .def_311 () Bool (and .def_299 .def_310))
(define-fun .def_297 () Bool (= |!{a6.6}.next| |%{a6.6}#1|))
(define-fun .def_312 () Bool (and .def_297 .def_311))
(define-fun .def_295 () Bool (= |!{a7.7}.next| |%{a7.7}#1|))
(define-fun .def_313 () Bool (and .def_295 .def_312))
(define-fun .def_293 () Bool (= |!{a8.8}.next| |%{a8.8}#1|))
(define-fun .def_314 () Bool (and .def_293 .def_313))
(define-fun .def_291 () Bool (= |!{N}.next| nd<0>))
(define-fun .def_315 () Bool (and .def_291 .def_314))
(define-fun .def_71 () Bool (= |!{i}.next| 0))
(define-fun .def_316 () Bool (and .def_71 .def_315))
(define-fun .def_289 () Bool (= |!{x}.next| |%{x}#1|))
(define-fun .def_317 () Bool (and .def_289 .def_316))
(define-fun .def_320 () Bool (and .def_317 .def_319))
(define-fun .def_82 () Bool (not |!pc[1].next|))
(define-fun .def_83 () Bool (and |!pc[0].next| .def_82))
(define-fun .def_29 () Bool (not |!pc[2].next|))
(define-fun .def_84 () Bool (and .def_29 .def_83))
(define-fun .def_81 () Bool (not |!pc[3].next|))
(define-fun .def_85 () Bool (and .def_81 .def_84))
(define-fun .def_287 () Bool (and .def_20 .def_85))
(define-fun .def_321 () Bool (and .def_287 .def_320))
(define-fun .def_262 () Int (select .def_37 .def_73))
(define-fun .def_261 () Int (select .def_61 .def_73))
(define-fun .def_263 () Bool (= .def_261 .def_262))
(define-fun .def_271 () Bool (not .def_263))
(define-fun .def_272 () Bool (and .def_39 .def_271))
(define-fun .def_273 () Bool (and .def_36 .def_272))
(define-fun .def_274 () Bool (and .def_43 .def_273))
(define-fun .def_275 () Bool (and .def_47 .def_274))
(define-fun .def_276 () Bool (and .def_51 .def_275))
(define-fun .def_277 () Bool (and .def_55 .def_276))
(define-fun .def_278 () Bool (and .def_59 .def_277))
(define-fun .def_279 () Bool (and .def_63 .def_278))
(define-fun .def_67 () Bool (= .def_65 |!{N}.next|))
(define-fun .def_280 () Bool (and .def_67 .def_279))
(define-fun .def_281 () Bool (and .def_219 .def_280))
(define-fun .def_75 () Bool (= .def_73 |!{x}.next|))
(define-fun .def_282 () Bool (and .def_75 .def_281))
(define-fun .def_247 () Bool (<= .def_65 .def_73))
(define-fun .def_265 () Bool (not .def_247))
(define-fun .def_283 () Bool (and .def_265 .def_282))
(define-fun .def_157 () Bool (and |!pc[0].next| |!pc[1].next|))
(define-fun .def_268 () Bool (and .def_29 .def_157))
(define-fun .def_269 () Bool (and .def_81 .def_268))
(define-fun .def_113 () Bool (and .def_14 .def_17))
(define-fun .def_114 () Bool (and .def_13 .def_113))
(define-fun .def_245 () Bool (and .def_11 .def_114))
(define-fun .def_270 () Bool (and .def_245 .def_269))
(define-fun .def_284 () Bool (and .def_270 .def_283))
(define-fun .def_238 () Int (* (- 1) |!{x}.next|))
(define-fun .def_239 () Int (+ .def_73 .def_238))
(define-fun .def_240 () Bool (= .def_239 (- 1)))
(define-fun .def_40 () Bool (and .def_36 .def_39))
(define-fun .def_44 () Bool (and .def_40 .def_43))
(define-fun .def_48 () Bool (and .def_44 .def_47))
(define-fun .def_52 () Bool (and .def_48 .def_51))
(define-fun .def_56 () Bool (and .def_52 .def_55))
(define-fun .def_60 () Bool (and .def_56 .def_59))
(define-fun .def_64 () Bool (and .def_60 .def_63))
(define-fun .def_68 () Bool (and .def_64 .def_67))
(define-fun .def_220 () Bool (and .def_68 .def_219))
(define-fun .def_241 () Bool (and .def_220 .def_240))
(define-fun .def_264 () Bool (and .def_241 .def_263))
(define-fun .def_266 () Bool (and .def_264 .def_265))
(define-fun .def_25 () Bool (not |!pc[0].next|))
(define-fun .def_27 () Bool (and .def_25 |!pc[1].next|))
(define-fun .def_30 () Bool (and .def_27 .def_29))
(define-fun .def_216 () Bool (and .def_30 .def_81))
(define-fun .def_260 () Bool (and .def_216 .def_245))
(define-fun .def_267 () Bool (and .def_260 .def_266))
(define-fun .def_285 () Bool (or .def_267 .def_284))
(define-fun .def_248 () Bool (and .def_39 .def_247))
(define-fun .def_249 () Bool (and .def_36 .def_248))
(define-fun .def_250 () Bool (and .def_43 .def_249))
(define-fun .def_251 () Bool (and .def_47 .def_250))
(define-fun .def_252 () Bool (and .def_51 .def_251))
(define-fun .def_253 () Bool (and .def_55 .def_252))
(define-fun .def_254 () Bool (and .def_59 .def_253))
(define-fun .def_255 () Bool (and .def_63 .def_254))
(define-fun .def_256 () Bool (and .def_67 .def_255))
(define-fun .def_257 () Bool (and .def_219 .def_256))
(define-fun .def_258 () Bool (and .def_75 .def_257))
(define-fun .def_136 () Bool (and .def_25 .def_82))
(define-fun .def_243 () Bool (and |!pc[2].next| .def_136))
(define-fun .def_244 () Bool (and .def_81 .def_243))
(define-fun .def_246 () Bool (and .def_244 .def_245))
(define-fun .def_259 () Bool (and .def_246 .def_258))
(define-fun .def_286 () Bool (or .def_259 .def_285))
(define-fun .def_322 () Bool (or .def_286 .def_321))
(define-fun .def_176 () Bool (and .def_14 .def_16))
(define-fun .def_235 () Bool (and .def_13 .def_176))
(define-fun .def_236 () Bool (and .def_11 .def_235))
(define-fun .def_237 () Bool (and .def_216 .def_236))
(define-fun .def_242 () Bool (and .def_237 .def_241))
(define-fun .def_323 () Bool (or .def_242 .def_322))
(define-fun .def_228 () Bool (and .def_60 .def_227))
(define-fun .def_229 () Bool (and .def_67 .def_228))
(define-fun .def_104 () Int (* (- 1) .def_77))
(define-fun .def_105 () Int (+ |!{i}.next| .def_104))
(define-fun .def_106 () Bool (= .def_105 1))
(define-fun .def_230 () Bool (and .def_106 .def_229))
(define-fun .def_231 () Bool (and .def_75 .def_230))
(define-fun .def_78 () Bool (<= .def_65 .def_77))
(define-fun .def_109 () Bool (not .def_78))
(define-fun .def_232 () Bool (and .def_109 .def_231))
(define-fun .def_21 () Bool (and .def_15 .def_16))
(define-fun .def_214 () Bool (and .def_12 .def_21))
(define-fun .def_215 () Bool (and .def_11 .def_214))
(define-fun .def_198 () Bool (and |!pc[2].next| .def_83))
(define-fun .def_199 () Bool (and .def_81 .def_198))
(define-fun .def_224 () Bool (and .def_199 .def_215))
(define-fun .def_233 () Bool (and .def_224 .def_232))
(define-fun .def_218 () Bool (= |!{x}.next| 0))
(define-fun .def_221 () Bool (and .def_218 .def_220))
(define-fun .def_222 () Bool (and .def_78 .def_221))
(define-fun .def_217 () Bool (and .def_215 .def_216))
(define-fun .def_223 () Bool (and .def_217 .def_222))
(define-fun .def_234 () Bool (or .def_223 .def_233))
(define-fun .def_324 () Bool (or .def_234 .def_323))
(define-fun .def_206 () Bool (and .def_56 .def_205))
(define-fun .def_207 () Bool (and .def_63 .def_206))
(define-fun .def_208 () Bool (and .def_67 .def_207))
(define-fun .def_209 () Bool (and .def_106 .def_208))
(define-fun .def_210 () Bool (and .def_75 .def_209))
(define-fun .def_211 () Bool (and .def_109 .def_210))
(define-fun .def_196 () Bool (and .def_12 .def_113))
(define-fun .def_197 () Bool (and .def_11 .def_196))
(define-fun .def_179 () Bool (and .def_27 |!pc[2].next|))
(define-fun .def_180 () Bool (and .def_81 .def_179))
(define-fun .def_202 () Bool (and .def_180 .def_197))
(define-fun .def_212 () Bool (and .def_202 .def_211))
(define-fun .def_200 () Bool (and .def_197 .def_199))
(define-fun .def_72 () Bool (and .def_68 .def_71))
(define-fun .def_76 () Bool (and .def_72 .def_75))
(define-fun .def_79 () Bool (and .def_76 .def_78))
(define-fun .def_201 () Bool (and .def_79 .def_200))
(define-fun .def_213 () Bool (or .def_201 .def_212))
(define-fun .def_325 () Bool (or .def_213 .def_324))
(define-fun .def_187 () Bool (and .def_52 .def_186))
(define-fun .def_188 () Bool (and .def_59 .def_187))
(define-fun .def_189 () Bool (and .def_63 .def_188))
(define-fun .def_190 () Bool (and .def_67 .def_189))
(define-fun .def_191 () Bool (and .def_106 .def_190))
(define-fun .def_192 () Bool (and .def_75 .def_191))
(define-fun .def_193 () Bool (and .def_109 .def_192))
(define-fun .def_177 () Bool (and .def_12 .def_176))
(define-fun .def_178 () Bool (and .def_11 .def_177))
(define-fun .def_158 () Bool (and |!pc[2].next| .def_157))
(define-fun .def_159 () Bool (and .def_81 .def_158))
(define-fun .def_183 () Bool (and .def_159 .def_178))
(define-fun .def_194 () Bool (and .def_183 .def_193))
(define-fun .def_181 () Bool (and .def_178 .def_180))
(define-fun .def_182 () Bool (and .def_79 .def_181))
(define-fun .def_195 () Bool (or .def_182 .def_194))
(define-fun .def_326 () Bool (or .def_195 .def_325))
(define-fun .def_166 () Bool (and .def_48 .def_165))
(define-fun .def_167 () Bool (and .def_55 .def_166))
(define-fun .def_168 () Bool (and .def_59 .def_167))
(define-fun .def_169 () Bool (and .def_63 .def_168))
(define-fun .def_170 () Bool (and .def_67 .def_169))
(define-fun .def_171 () Bool (and .def_106 .def_170))
(define-fun .def_172 () Bool (and .def_75 .def_171))
(define-fun .def_173 () Bool (and .def_109 .def_172))
(define-fun .def_156 () Bool (and .def_10 .def_19))
(define-fun .def_137 () Bool (and .def_29 .def_136))
(define-fun .def_138 () Bool (and |!pc[3].next| .def_137))
(define-fun .def_162 () Bool (and .def_138 .def_156))
(define-fun .def_174 () Bool (and .def_162 .def_173))
(define-fun .def_160 () Bool (and .def_156 .def_159))
(define-fun .def_161 () Bool (and .def_79 .def_160))
(define-fun .def_175 () Bool (or .def_161 .def_174))
(define-fun .def_327 () Bool (or .def_175 .def_326))
(define-fun .def_145 () Bool (and .def_44 .def_144))
(define-fun .def_146 () Bool (and .def_51 .def_145))
(define-fun .def_147 () Bool (and .def_55 .def_146))
(define-fun .def_148 () Bool (and .def_59 .def_147))
(define-fun .def_149 () Bool (and .def_63 .def_148))
(define-fun .def_150 () Bool (and .def_67 .def_149))
(define-fun .def_151 () Bool (and .def_106 .def_150))
(define-fun .def_152 () Bool (and .def_75 .def_151))
(define-fun .def_153 () Bool (and .def_109 .def_152))
(define-fun .def_22 () Bool (and .def_13 .def_21))
(define-fun .def_135 () Bool (and .def_10 .def_22))
(define-fun .def_116 () Bool (and |!pc[3].next| .def_84))
(define-fun .def_141 () Bool (and .def_116 .def_135))
(define-fun .def_154 () Bool (and .def_141 .def_153))
(define-fun .def_139 () Bool (and .def_135 .def_138))
(define-fun .def_140 () Bool (and .def_79 .def_139))
(define-fun .def_155 () Bool (or .def_140 .def_154))
(define-fun .def_328 () Bool (or .def_155 .def_327))
(define-fun .def_123 () Bool (and .def_40 .def_122))
(define-fun .def_124 () Bool (and .def_47 .def_123))
(define-fun .def_125 () Bool (and .def_51 .def_124))
(define-fun .def_126 () Bool (and .def_55 .def_125))
(define-fun .def_127 () Bool (and .def_59 .def_126))
(define-fun .def_128 () Bool (and .def_63 .def_127))
(define-fun .def_129 () Bool (and .def_67 .def_128))
(define-fun .def_130 () Bool (and .def_106 .def_129))
(define-fun .def_131 () Bool (and .def_75 .def_130))
(define-fun .def_132 () Bool (and .def_109 .def_131))
(define-fun .def_115 () Bool (and .def_10 .def_114))
(define-fun .def_32 () Bool (and .def_30 |!pc[3].next|))
(define-fun .def_119 () Bool (and .def_32 .def_115))
(define-fun .def_133 () Bool (and .def_119 .def_132))
(define-fun .def_117 () Bool (and .def_115 .def_116))
(define-fun .def_118 () Bool (and .def_79 .def_117))
(define-fun .def_134 () Bool (or .def_118 .def_133))
(define-fun .def_329 () Bool (or .def_134 .def_328))
(define-fun .def_92 () Bool (and .def_89 .def_91))
(define-fun .def_93 () Bool (and .def_43 .def_92))
(define-fun .def_94 () Bool (and .def_47 .def_93))
(define-fun .def_95 () Bool (and .def_51 .def_94))
(define-fun .def_96 () Bool (and .def_55 .def_95))
(define-fun .def_97 () Bool (and .def_59 .def_96))
(define-fun .def_98 () Bool (and .def_63 .def_97))
(define-fun .def_99 () Bool (and .def_67 .def_98))
(define-fun .def_107 () Bool (and .def_99 .def_106))
(define-fun .def_108 () Bool (and .def_75 .def_107))
(define-fun .def_110 () Bool (and .def_108 .def_109))
(define-fun .def_23 () Bool (and .def_11 .def_22))
(define-fun .def_86 () Bool (and .def_23 .def_85))
(define-fun .def_111 () Bool (and .def_86 .def_110))
(define-fun .def_33 () Bool (and .def_23 .def_32))
(define-fun .def_80 () Bool (and .def_33 .def_79))
(define-fun .def_112 () Bool (or .def_80 .def_111))
(define-fun .def_330 () Bool (or .def_112 .def_329))
(define-fun .def_4773 () Bool (and .def_330 .def_736))
(define-fun .def_331 () Bool (not .def_236))
(define-fun .def_4774 () Bool (and .def_331 .def_4773))
(define-fun .def_162009 () Bool (and .def_4774 .def_162008))
(define-fun .def_162004 () (Array Int Int) (store |!{a8.8}.next| |!{i}.next| .def_162003))
(define-fun .def_162005 () Int (select .def_162004 |!{i}.next|))
(define-fun .def_162006 () Bool (= .def_162003 .def_162005))
(define-fun .def_162010 () Bool (and .def_162006 .def_162009))
(define-fun .def_162013 () Bool (and .def_162010 .def_162012))
(define-fun .def_162000 () (Array Int Int) (store |!{a7.7}.next| |!{i}.next| .def_161999))
(define-fun .def_162001 () Int (select .def_162000 |!{i}.next|))
(define-fun .def_162002 () Bool (= .def_161999 .def_162001))
(define-fun .def_162014 () Bool (and .def_162002 .def_162013))
(define-fun .def_162017 () Bool (and .def_162014 .def_162016))
(define-fun .def_161996 () (Array Int Int) (store |!{a6.6}.next| |!{i}.next| .def_161995))
(define-fun .def_161997 () Int (select .def_161996 |!{i}.next|))
(define-fun .def_161998 () Bool (= .def_161995 .def_161997))
(define-fun .def_162018 () Bool (and .def_161998 .def_162017))
(define-fun .def_162021 () Bool (and .def_162018 .def_162020))
(define-fun .def_161992 () (Array Int Int) (store |!{a5.5}.next| |!{i}.next| .def_161991))
(define-fun .def_161993 () Int (select .def_161992 |!{i}.next|))
(define-fun .def_161994 () Bool (= .def_161991 .def_161993))
(define-fun .def_162022 () Bool (and .def_161994 .def_162021))
(define-fun .def_162025 () Bool (and .def_162022 .def_162024))
(define-fun .def_161988 () (Array Int Int) (store |!{a4.4}.next| |!{i}.next| .def_161987))
(define-fun .def_161989 () Int (select .def_161988 |!{i}.next|))
(define-fun .def_161990 () Bool (= .def_161987 .def_161989))
(define-fun .def_162026 () Bool (and .def_161990 .def_162025))
(define-fun .def_162029 () Bool (and .def_162026 .def_162028))
(define-fun .def_161984 () (Array Int Int) (store |!{a3.3}.next| |!{i}.next| .def_161983))
(define-fun .def_161985 () Int (select .def_161984 |!{i}.next|))
(define-fun .def_161986 () Bool (= .def_161983 .def_161985))
(define-fun .def_162030 () Bool (and .def_161986 .def_162029))
(define-fun .def_162033 () Bool (and .def_162030 .def_162032))
(define-fun .def_161980 () (Array Int Int) (store |!{a1.1}.next| |!{i}.next| nd_char<0>))
(define-fun .def_161981 () Int (select .def_161980 |!{i}.next|))
(define-fun .def_161982 () Bool (= nd_char<0> .def_161981))
(define-fun .def_162034 () Bool (and .def_161982 .def_162033))
(define-fun .def_162037 () Bool (and .def_162034 .def_162036))
(define-fun .def_161977 () (Array Int Int) (store |!{a2.2}.next| |!{i}.next| nd_char<0>))
(define-fun .def_161978 () Int (select .def_161977 |!{i}.next|))
(define-fun .def_161979 () Bool (= nd_char<0> .def_161978))
(define-fun .def_162038 () Bool (and .def_161979 .def_162037))
(define-fun .def_162044 () Bool (and .def_162038 .def_162043))
(define-fun .def_162049 () Bool (and .def_162044 .def_162048))
(define-fun .def_162054 () Bool (and .def_162049 .def_162053))
(define-fun .def_162059 () Bool (and .def_162054 .def_162058))
(define-fun .def_162064 () Bool (and .def_162059 .def_162063))
(define-fun .def_162069 () Bool (and .def_162064 .def_162068))
(define-fun .def_162074 () Bool (and .def_162069 .def_162073))
(define-fun .def_162079 () Bool (and .def_162074 .def_162078))
(define-fun .def_162084 () Bool (and .def_162079 .def_162083))
(define-fun .def_162090 () Bool (and .def_162084 .def_162089))
(define-fun .def_162095 () Bool (and .def_162090 .def_162094))
(define-fun .def_162100 () Bool (and .def_162095 .def_162099))
(define-fun .def_162105 () Bool (and .def_162100 .def_162104))
(define-fun .def_162110 () Bool (and .def_162105 .def_162109))
(define-fun .def_162115 () Bool (and .def_162110 .def_162114))
(define-fun .def_162120 () Bool (and .def_162115 .def_162119))
(define-fun .def_162124 () Bool (and .def_162120 .def_162123))
(define-fun .def_162129 () Bool (and .def_162124 .def_162128))
(define-fun .def_568616 () Bool (and .def_162129 .def_325759))
(define-fun .def_568620 () Bool (and .def_568616 .def_568619))
(define-fun .def_568624 () Bool (and .def_568620 .def_568623))
(define-fun .def_568628 () Bool (and .def_568624 .def_568627))
(define-fun .def_568632 () Bool (and .def_568628 .def_568631))
(define-fun .def_568636 () Bool (and .def_568632 .def_568635))
(define-fun .def_568641 () Bool (and .def_568636 .def_568640))
(define-fun .def_568646 () Bool (and .def_568641 .def_568645))
(define-fun .def_568651 () Bool (and .def_568646 .def_568650))
(define-fun .def_568656 () Bool (and .def_568651 .def_568655))
(define-fun .def_568661 () Bool (and .def_568656 .def_568660))
(define-fun .def_568666 () Bool (and .def_568661 .def_568665))
(define-fun .def_568671 () Bool (and .def_568666 .def_568670))
(define-fun .def_568676 () Bool (and .def_568671 .def_568675))
(define-fun .def_568680 () Bool (and .def_568676 .def_568679))
(define-fun .def_568685 () Bool (and .def_568680 .def_568684))
(define-fun .def_568689 () Bool (and .def_568685 .def_568688))
(define-fun .def_568613 () Int (select |!{a8.8}.next| proph0.next))
(define-fun .def_568612 () Int (select .def_162004 proph0.next))
(define-fun .def_568614 () Bool (= .def_568612 .def_568613))
(define-fun .def_414737 () Bool (= |!{i}.next| proph0.next))
(define-fun .def_568615 () Bool (or .def_414737 .def_568614))
(define-fun .def_568690 () Bool (and .def_568615 .def_568689))
(define-fun .def_568694 () Bool (and .def_568690 .def_568693))
(define-fun .def_568609 () Int (select |!{a7.7}.next| proph0.next))
(define-fun .def_568608 () Int (select .def_162000 proph0.next))
(define-fun .def_568610 () Bool (= .def_568608 .def_568609))
(define-fun .def_568611 () Bool (or .def_414737 .def_568610))
(define-fun .def_568695 () Bool (and .def_568611 .def_568694))
(define-fun .def_568699 () Bool (and .def_568695 .def_568698))
(define-fun .def_568605 () Int (select |!{a6.6}.next| proph0.next))
(define-fun .def_568604 () Int (select .def_161996 proph0.next))
(define-fun .def_568606 () Bool (= .def_568604 .def_568605))
(define-fun .def_568607 () Bool (or .def_414737 .def_568606))
(define-fun .def_568700 () Bool (and .def_568607 .def_568699))
(define-fun .def_568704 () Bool (and .def_568700 .def_568703))
(define-fun .def_568601 () Int (select |!{a5.5}.next| proph0.next))
(define-fun .def_568600 () Int (select .def_161992 proph0.next))
(define-fun .def_568602 () Bool (= .def_568600 .def_568601))
(define-fun .def_568603 () Bool (or .def_414737 .def_568602))
(define-fun .def_568705 () Bool (and .def_568603 .def_568704))
(define-fun .def_568709 () Bool (and .def_568705 .def_568708))
(define-fun .def_568597 () Int (select |!{a4.4}.next| proph0.next))
(define-fun .def_568596 () Int (select .def_161988 proph0.next))
(define-fun .def_568598 () Bool (= .def_568596 .def_568597))
(define-fun .def_568599 () Bool (or .def_414737 .def_568598))
(define-fun .def_568710 () Bool (and .def_568599 .def_568709))
(define-fun .def_568714 () Bool (and .def_568710 .def_568713))
(define-fun .def_568593 () Int (select |!{a3.3}.next| proph0.next))
(define-fun .def_568592 () Int (select .def_161984 proph0.next))
(define-fun .def_568594 () Bool (= .def_568592 .def_568593))
(define-fun .def_568595 () Bool (or .def_414737 .def_568594))
(define-fun .def_568715 () Bool (and .def_568595 .def_568714))
(define-fun .def_568718 () Bool (and .def_568715 .def_568717))
(define-fun .def_568589 () Int (select |!{a1.1}.next| proph0.next))
(define-fun .def_568588 () Int (select .def_161980 proph0.next))
(define-fun .def_568590 () Bool (= .def_568588 .def_568589))
(define-fun .def_568591 () Bool (or .def_414737 .def_568590))
(define-fun .def_568719 () Bool (and .def_568591 .def_568718))
(define-fun .def_568723 () Bool (and .def_568719 .def_568722))
(define-fun .def_568585 () Int (select |!{a2.2}.next| proph0.next))
(define-fun .def_568584 () Int (select .def_161977 proph0.next))
(define-fun .def_568586 () Bool (= .def_568584 .def_568585))
(define-fun .def_568587 () Bool (or .def_414737 .def_568586))
(define-fun .def_568724 () Bool (and .def_568587 .def_568723))
(define-fun .def_568727 () Bool (and .def_568724 .def_568726))
(define-fun .def_568730 () Bool (and .def_568727 .def_568729))
(define-fun .def_568733 () Bool (and .def_568730 .def_568732))
(define-fun .def_568736 () Bool (and .def_568733 .def_568735))
(define-fun .def_568739 () Bool (and .def_568736 .def_568738))
(define-fun .def_568742 () Bool (and .def_568739 .def_568741))
(define-fun .def_568745 () Bool (and .def_568742 .def_568744))
(define-fun .def_568748 () Bool (and .def_568745 .def_568747))
(define-fun .def_568751 () Bool (! (and .def_568748 .def_568750) :trans true))
(define-fun .def_325757 () Bool (= .def_73 .def_325756))
(define-fun .def_325761 () Bool (not .def_325757))
(define-fun .def_325762 () Bool (! (or .def_331 .def_325761) :invar-property 0))
(assert true)
